100 4000
2 1
1 13
2 2
1 2
1 3
2 41
1 16
1 35
1 8
2 36
2 44
2 39
2 23
2 46
2 18
1 9
1 21
2 30
2 28
1 33
1 48
1 7
2 6
1 39
2 26
2 14
2 5
2 31
2 47
2 12
2 36
2 22
1 13
1 48
2 24
1 29
1 28
1 4
1 35
1 46
2 25
2 31
2 40
2 38
2 11
2 37
1 24
2 42
2 1
1 50
2 17
1 20
2 9
1 19
1 42
1 12
1 47
2 8
2 45
2 43
1 18
1 7
2 25
2 17
2 29
2 22
2 32
1 5
1 23
2 15
2 34
2 34
2 14
1 50
1 26
1 11
1 10
1 10
1 16
2 27
1 33
1 30
1 44
1 20
1 40
1 41
2 27
2 3
2 15
2 43
1 49
2 4
1 45
2 19
2 37
1 21
1 49
1 6
1 38
1 32
